%chk=./gau_temp_index/mol_chk.chk
%mem=3500MB
#p b3lyp/6-31g* empiricaldispersion=gd3 int(ultrafine) force

salicylic_acid

0  1 
