%chk=./gau_temp_64/mol_chk.chk
%mem=3500MB
#p pop=mk b3lyp/6-31g* empiricaldispersion=gd3 int(ultrafine) opt=modredundant

salicylic acid

0  1 
C 1.66681000 -0.21312000 -0.00010000
C 0.20209000 -0.24693000 -0.00006000
C -0.51031000 0.98178000 -0.00002000
O 0.09344000 2.18233000 -0.00005000
C -1.91456000 0.95913000 0.00004000
C -2.59342000 -0.25031000 0.00005000
C -1.89794000 -1.47067000 0.00001000
C -0.51278000 -1.46141000 -0.00005000
O 2.35110878 0.51989488 -0.71680922
O 2.25225469 -1.06667406 0.86691302
H 1.06859000 2.02350000 -0.00015000
H -2.43932000 1.90884000 0.00007000
H -3.68035000 -0.24915000 0.00009000
H -2.43960000 -2.41130000 0.00002000
H 0.04447000 -2.39190000 -0.00007000
H 3.21357772 -0.93991758 0.76255513

3 2 1 10 B
3 2 1 10 F

